coords = array2d(1..69, 1..2, [945, 23, 462, 19, 768, 879, 789, 612, 479, 279,
    136, 291, 320, 186, 7, 60, 487, 294, 404, 352, 667, 183, 589, 981,
    438, 329, 486, 791, 982, 810, 952, 587, 537, 200, 420, 179, 313,
    992, 943, 649, 872, 203, 835, 365, 476, 113, 198, 933, 109, 333,
    395, 100, 272, 581, 191, 354, 655, 509, 566, 103, 788, 926, 487,
    827, 508, 559, 793, 375, 945, 147, 323, 491, 735, 818, 201, 414,
    170, 144, 562, 850, 189, 9, 996, 116, 459, 550, 66, 408, 133, 295,
    244, 113, 550, 261, 974, 724, 721, 59, 552, 223, 131, 214, 193,
    260, 90, 59, 677, 81, 748, 845, 960, 383, 689, 702, 677, 469, 361,
    31, 991, 982, 233, 891, 185, 682, 710, 595, 649, 747, 467, 252,
    169, 291, 203, 471, 639, 489, 235, 583]);

n = 69;

